
******************************************************************************
This program contains Ipopt, a library for large-scale nonlinear optimization.
 Ipopt is released as open source code under the Eclipse Public License (EPL).
         For more information visit http://projects.coin-or.org/Ipopt

This version of Ipopt was compiled from source code available at
    https://github.com/IDAES/Ipopt as part of the Institute for the Design of
    Advanced Energy Systems Process Systems Engineering Framework (IDAES PSE
    Framework) Copyright (c) 2018-2019. See https://github.com/IDAES/idaes-pse.

This version of Ipopt was compiled using HSL, a collection of Fortran codes
    for large-scale scientific computation.  All technical papers, sales and
    publicity material resulting from use of the HSL codes within IPOPT must
    contain the following acknowledgement:
        HSL, a collection of Fortran codes for large-scale scientific
        computation. See http://www.hsl.rl.ac.uk.
******************************************************************************

This is Ipopt version 3.13.2, running with linear solver ma27.

Number of nonzeros in equality constraint Jacobian...:     1840
Number of nonzeros in inequality constraint Jacobian.:        0
Number of nonzeros in Lagrangian Hessian.............:     3296

Total number of variables............................:      640
                     variables with only lower bounds:      128
                variables with lower and upper bounds:      448
                     variables with only upper bounds:        0
Total number of equality constraints.................:      632
Total number of inequality constraints...............:        0
        inequality constraints with only lower bounds:        0
   inequality constraints with lower and upper bounds:        0
        inequality constraints with only upper bounds:        0

iter    objective    inf_pr   inf_du lg(mu)  ||d||  lg(rg) alpha_du alpha_pr  ls
   0  0.0000000e+00 2.28e+00 4.44e-15  -1.0 0.00e+00    -  0.00e+00 0.00e+00   0
   1  1.1429046e+01 4.20e-01 1.71e+03  -1.0 4.44e+04    -  6.41e-01 9.90e-01h  1
   2  1.1875960e+01 2.63e-02 3.91e+01  -1.0 3.48e+03    -  9.51e-01 9.90e-01h  1
   3  1.1683331e+01 1.02e-03 1.45e+02  -1.0 1.44e+03    -  9.89e-01 9.90e-01h  1
   4  1.1015880e+01 3.05e-04 5.73e+04  -1.0 6.27e+03    -  9.84e-01 9.90e-01H  1
   5  1.0998836e+01 6.49e-05 1.06e+04  -1.0 4.86e+02    -  9.90e-01 9.90e-01H  1
   6  1.0984509e+01 1.21e-03 7.20e+07  -3.8 6.98e+02    -  9.79e-01 5.00e-01h  2
   7  1.0976559e+01 1.47e-02 1.86e+08  -3.8 6.31e+02    -  1.00e+00 5.00e-01h  2
   8  1.0975010e+01 4.94e-02 5.91e+08  -3.8 3.30e+02    -  1.00e+00 2.50e-01h  3
   9  1.0975011e+01 4.86e-02 1.37e+09  -3.8 2.36e+00  -4.0 1.00e+00 1.56e-02h  7
iter    objective    inf_pr   inf_du lg(mu)  ||d||  lg(rg) alpha_du alpha_pr  ls
  10  1.0975011e+01 4.82e-02 2.17e+09  -3.8 2.38e+00  -4.5 1.00e+00 7.81e-03h  8
  11  1.0969825e+01 2.02e+02 1.86e+09  -3.8 1.92e+03    -  1.20e-01 1.36e-01h  1
  12  1.0971456e+01 2.02e+02 1.86e+09  -3.8 3.57e+04    -  9.53e-04 9.76e-04h 11
  13  1.0971484e+01 2.02e+02 2.81e+09  -3.8 3.59e+04    -  1.00e+00 1.53e-05h 17
  14  1.0974238e+01 2.01e+02 2.81e+09  -3.8 3.49e+04    -  1.29e-03 1.29e-03s 22
  15  2.6164507e+01 2.93e+00 4.22e+05  -3.8 3.60e+04    -  1.00e+00 1.00e+00s 22
  16  1.1632808e+02 2.71e+00 3.54e+05  -3.8 5.65e+05    -  1.63e-01 1.63e-01s 22
  17  2.2252733e+02 1.51e+00 3.36e+05  -3.8 2.51e+06    -  5.18e-02 5.18e-02s 22
  18  1.0648238e+03 1.82e+02 2.73e+05  -3.8 1.36e+06    -  1.92e-01 1.92e-01s 22
  19  2.5614352e+03 1.19e+02 1.93e+05  -3.8 5.20e+05    -  2.96e-01 2.96e-01s 22
iter    objective    inf_pr   inf_du lg(mu)  ||d||  lg(rg) alpha_du alpha_pr  ls
  20r 2.5614352e+03 1.19e+02 1.00e+03   2.1 0.00e+00  -5.0 0.00e+00 0.00e+00R  1
  21r 2.5614303e+03 1.07e+02 9.99e+02   2.1 1.53e+05    -  2.79e-03 1.85e-03f  1
  22r 2.5614291e+03 1.06e+02 9.88e+02   2.1 7.99e+03    -  1.84e-02 5.33e-03f  1
  23r 2.5614289e+03 1.05e+02 9.18e+02   2.1 2.77e+02    -  1.43e-01 1.29e-02f  1
  24r 2.5614341e+03 9.08e+01 8.05e+02   2.1 1.05e+02    -  8.67e-01 1.35e-01f  1
  25r 2.5614495e+03 1.45e+01 7.26e+02   1.4 9.08e+01    -  7.30e-01 8.40e-01f  1
  26r 2.5614269e+03 7.62e+00 5.60e+02   0.7 4.29e+01    -  9.13e-01 4.75e-01f  1
  27r 2.5614269e+03 7.60e+00 2.21e+04   0.7 2.74e+00   6.0 8.29e-03 8.08e-03h  1
  28r 2.5614269e+03 7.60e+00 2.42e+04   0.7 4.27e+00   5.5 1.17e-02 1.46e-03h  1
  29r 2.5614269e+03 7.52e+00 3.59e+04   0.7 4.44e+00   5.0 2.51e-02 2.51e-02h  1
iter    objective    inf_pr   inf_du lg(mu)  ||d||  lg(rg) alpha_du alpha_pr  ls
  30r 2.5614269e+03 7.05e+00 5.61e+04   0.7 4.41e+00   4.6 6.69e-02 1.58e-01f  1
  31r 2.5614269e+03 5.87e+00 5.11e+04   0.7 3.70e+00   4.1 2.19e-01 4.77e-01f  1
  32r 2.5614269e+03 5.43e+00 3.72e+04   0.7 1.90e+00   3.6 4.83e-01 3.23e-01f  1
  33r 2.5614269e+03 4.53e+00 9.76e+03   0.7 1.17e+00   3.1 3.66e-01 8.76e-01f  1
  34r 2.5614269e+03 4.47e+00 4.00e+03   0.7 2.19e-01   3.6 6.34e-01 3.58e-01f  1
  35r 2.5614269e+03 4.40e+00 7.98e+03   0.7 1.02e-01   4.9 6.07e-01 1.00e+00h  1
  36r 2.5614269e+03 4.40e+00 5.08e+03   0.7 4.79e-02   4.4 1.00e+00 3.77e-01f  1
  37r 2.5614269e+03 4.38e+00 1.34e+03   0.7 7.03e-02   3.9 8.97e-01 7.33e-01f  1
  38r 2.5614269e+03 4.37e+00 1.16e+03   0.7 2.08e-01   3.5 8.83e-01 1.51e-01f  1
  39r 2.5614269e+03 4.30e+00 8.58e+02   0.7 6.65e-01   3.0 3.45e-01 3.43e-01f  1
iter    objective    inf_pr   inf_du lg(mu)  ||d||  lg(rg) alpha_du alpha_pr  ls
  40r 2.5614269e+03 4.26e+00 7.16e+02   0.7 2.34e-01   3.4 8.53e-01 5.52e-01f  1
  41r 2.5614269e+03 4.13e+00 6.55e+02   0.7 7.00e-01   2.9 6.47e-01 5.27e-01f  1
  42r 2.5614269e+03 4.10e+00 6.34e+02   0.7 2.62e-01   3.4 1.00e+00 3.67e-01f  1
  43r 2.5614269e+03 4.10e+00 6.34e+02   0.7 8.17e-01   3.8 2.37e-02 6.58e-03H  1
  44r 2.5614269e+03 4.09e+00 6.00e+02   0.7 3.69e-02   4.2 1.00e+00 1.00e+00f  1
  45r 2.5614269e+03 4.06e+00 8.15e+02   0.7 1.11e-01   3.7 1.00e+00 7.76e-01f  1
  46r 2.5614269e+03 4.04e+00 8.61e+02   0.7 3.31e-01   3.3 8.02e-01 1.94e-01f  1
  47r 2.5614269e+03 4.02e+00 8.23e+02   0.7 9.83e-01   2.8 4.23e-02 3.44e-02f  1
  48r 2.5614269e+03 3.88e+00 9.81e+02   0.7 2.87e+00   2.3 3.46e-01 1.34e-01f  1
  49r 2.5614269e+03 3.75e+00 5.82e+02   0.7 1.04e+00   2.7 6.93e-01 3.23e-01f  1
iter    objective    inf_pr   inf_du lg(mu)  ||d||  lg(rg) alpha_du alpha_pr  ls
  50r 2.5614269e+03 3.51e+00 9.45e+02   0.7 3.28e-01   3.2 1.00e+00 9.40e-01f  1
  51r 2.5614269e+03 3.19e+00 5.29e+03   0.7 1.58e+00   2.7 2.51e-02 4.67e-01h  1
  52r 2.5614269e+03 2.97e+00 1.09e+04   0.7 2.79e+00   2.2 2.00e-02 1.03e-01f  1
  53r 2.5614269e+03 2.90e+00 3.35e+03   0.7 3.21e-01   3.5 1.37e-01 7.51e-01f  1
  54r 2.5614269e+03 2.89e+00 2.34e+03   0.7 1.76e-01   4.0 1.00e+00 2.25e-01f  1
  55r 2.5614269e+03 2.78e+00 1.14e+03   0.7 2.93e-01   3.5 7.36e-01 1.00e+00f  1
  56r 2.5614269e+03 2.76e+00 1.85e+03   0.7 1.14e+00   3.0 2.24e-01 6.43e-02h  1
  57r 2.5614269e+03 2.76e+00 8.99e+02   0.7 7.06e-02   4.3 3.67e-01 3.77e-01f  1
  58r 2.5614269e+03 2.71e+00 5.89e+02   0.7 8.16e-02   3.9 1.00e+00 9.74e-01f  1
  59r 2.5614269e+03 2.57e+00 2.04e+03   0.7 1.41e-01   3.4 1.00e+00 1.00e+00f  1
iter    objective    inf_pr   inf_du lg(mu)  ||d||  lg(rg) alpha_du alpha_pr  ls
  60r 2.5614269e+03 2.33e+00 2.06e+04   0.7 1.45e+00   2.9 5.83e-02 5.77e-01h  1
  61r 2.5614269e+03 1.33e+00 1.37e+04   0.7 1.27e+00   2.4 4.57e-01 1.00e+00f  1
  62r 2.5614269e+03 1.04e+00 7.72e+03   0.7 4.14e-01   3.8 2.43e-01 4.03e-01h  1
  63r 2.5614269e+03 1.01e+00 4.12e+03   0.7 2.82e-01   4.2 4.14e-01 1.00e+00f  1
  64r 2.5614269e+03 1.01e+00 3.80e+03   0.7 1.84e-01   3.7 1.00e+00 9.16e-02f  1
  65r 2.5614269e+03 8.87e-01 1.55e+03   0.7 2.40e-01   3.2 1.00e+00 6.06e-01f  1
  66r 2.5614269e+03 1.56e+00 3.59e+03   0.7 5.97e-01   2.7 1.00e+00 1.00e+00f  1
  67r 2.5614269e+03 1.25e+00 2.97e+03   0.7 1.68e+00   2.3 9.08e-02 1.72e-01f  1
  68r 2.5614269e+03 1.03e+00 9.97e+02   0.7 1.40e+00   1.8 1.01e-01 4.61e-01h  1
  69r 2.5614269e+03 8.92e-01 8.48e+02   0.7 3.71e-01   2.2 7.27e-01 1.53e-01f  1
iter    objective    inf_pr   inf_du lg(mu)  ||d||  lg(rg) alpha_du alpha_pr  ls
  70r 2.5614269e+03 9.33e-01 8.32e+02   0.7 4.69e+00   1.7 2.68e-02 3.63e-02f  2
  71r 2.5614269e+03 3.35e-01 4.48e+02   0.7 3.83e-01   3.1 1.00e+00 1.00e+00f  1
  72r 2.5614269e+03 2.72e-01 1.04e+03   0.7 5.34e-01   2.6 1.00e+00 2.11e-01f  1
  73r 2.5614269e+03 2.58e-01 1.10e+03   0.7 1.59e+00   2.1 3.60e-01 9.65e-02f  1
  74r 2.5614269e+03 2.34e-01 7.04e+02   0.7 1.99e-01   1.6 7.61e-01 1.43e-01f  1
  75r 2.5614269e+03 1.82e-01 4.71e+02   0.7 5.50e-01   1.2 3.26e-01 5.77e-01f  1
  76r 2.5614269e+03 2.25e-01 7.10e+02   0.7 1.15e+00   0.7 3.60e-01 8.58e-01f  1
  77r 2.5614269e+03 1.81e-01 2.61e+02   0.7 2.01e+00   0.2 7.63e-01 9.62e-01f  1
  78r 2.5614269e+03 1.63e-01 3.35e+02   0.7 3.30e+00  -0.3 1.00e+00 3.59e-01f  1
  79r 2.5614268e+03 9.36e-02 5.01e+01   0.7 1.01e+01  -0.7 1.00e+00 1.00e+00f  1
iter    objective    inf_pr   inf_du lg(mu)  ||d||  lg(rg) alpha_du alpha_pr  ls
  80r 2.5614268e+03 1.28e-01 2.94e+01  -0.0 4.56e+00  -0.3 8.63e-01 9.64e-01f  1
  81r 2.5614268e+03 1.43e-01 1.84e+02  -0.7 2.44e+00   0.1 5.01e-01 7.04e-01f  1
  82r 2.5614268e+03 1.39e-01 9.79e+01  -0.7 7.69e+00  -0.4 5.08e-01 4.28e-01f  1
  83r 2.5614268e+03 1.35e-01 4.97e+02  -0.7 2.91e+00   0.1 9.63e-01 3.74e-01f  1
  84r 2.5614268e+03 1.27e-01 5.44e+02  -0.7 1.02e+01  -0.4 6.61e-01 2.21e-01f  1
  85r 2.5614268e+03 1.21e-01 6.27e+02  -0.7 2.93e+00   0.0 4.56e-01 2.40e-01f  1
  86r 2.5614268e+03 1.08e-01 3.51e+02  -0.7 1.19e+01  -0.5 1.54e-01 4.16e-01f  1
  87r 2.5614268e+03 9.55e-02 3.72e+02  -0.7 3.87e+00  -0.1 4.40e-01 8.32e-01f  1
  88r 2.5614268e+03 9.68e-02 3.35e+02  -0.7 2.52e+01  -0.5 6.99e-02 4.98e-02f  1
  89r 2.5614268e+03 9.68e-02 8.81e+02  -0.7 4.93e+00  -0.1 6.58e-01 1.67e-01f  1
iter    objective    inf_pr   inf_du lg(mu)  ||d||  lg(rg) alpha_du alpha_pr  ls
  90r 2.5614268e+03 9.67e-02 7.09e+02  -0.7 1.38e+01  -0.6 4.03e-01 2.21e-01f  1
  91r 2.5614268e+03 1.00e-01 6.19e+02  -0.7 6.83e+01  -1.1 7.03e-02 5.05e-02f  1
  92r 2.5614268e+03 9.35e-02 6.81e+02  -0.7 1.30e+01  -0.6 4.02e-01 1.72e-01f  1
  93r 2.5614268e+03 8.91e-02 6.09e+02  -0.7 2.88e+01  -1.1 1.95e-01 1.59e-01f  1
  94r 2.5614268e+03 3.34e-01 5.42e+02  -0.7 9.71e+00  -0.7 9.50e-01 2.22e-01f  1
  95r 2.5614268e+03 2.77e-01 4.80e+02  -0.7 1.32e+01  -1.2 4.95e-01 1.70e-01f  1
  96r 2.5614268e+03 8.59e-02 1.39e+02  -0.7 1.84e-01   2.9 1.00e+00 1.00e+00f  1
  97r 2.5614268e+03 8.60e-02 1.01e+00  -0.7 3.97e-03   2.4 1.00e+00 1.00e+00f  1
  98r 2.5614268e+03 8.68e-02 5.42e+01  -2.1 1.19e-02   1.9 9.68e-01 7.70e-01f  1
  99r 2.5614268e+03 8.67e-02 1.32e+01  -2.1 3.12e-02   1.4 7.97e-01 8.53e-01f  1
iter    objective    inf_pr   inf_du lg(mu)  ||d||  lg(rg) alpha_du alpha_pr  ls
 100r 2.5614268e+03 8.67e-02 1.32e+02  -2.1 9.33e-02   1.0 1.00e+00 6.97e-01f  1
 101r 2.5614268e+03 8.72e-02 5.74e+01  -2.1 2.78e-01   0.5 4.10e-01 5.26e-01f  1
 102r 2.5614268e+03 8.81e-02 1.70e+02  -2.1 8.18e-01   0.0 1.00e+00 3.30e-01f  1
 103r 2.5614268e+03 8.91e-02 1.32e+02  -2.1 2.32e+00  -0.5 2.66e-01 2.34e-01f  1
 104r 2.5614268e+03 9.11e-02 1.20e+02  -2.1 7.19e+00  -0.9 2.08e-01 1.45e-01f  1
 105r 2.5614268e+03 9.11e-02 5.52e+02  -2.1 8.30e-03   2.2 6.30e-01 7.82e-02h  1
 106r 2.5614268e+03 9.11e-02 8.35e-01  -2.1 1.59e-02   1.7 1.00e+00 1.00e+00f  1
 107r 2.5614268e+03 9.11e-02 8.32e-01  -2.1 4.73e-02   1.2 1.00e+00 1.00e+00f  1
 108r 2.5614268e+03 9.12e-02 1.09e+02  -2.1 1.41e-01   0.8 6.42e-01 1.00e+00f  1
 109r 2.5614268e+03 9.14e-02 1.22e+02  -2.1 4.19e-01   0.3 1.00e+00 3.99e-01f  1
iter    objective    inf_pr   inf_du lg(mu)  ||d||  lg(rg) alpha_du alpha_pr  ls
 110r 2.5614268e+03 9.13e-02 3.60e+02  -2.1 1.24e+00  -0.2 5.85e-01 3.58e-01f  1
 111r 2.5614268e+03 9.13e-02 4.63e+02  -2.1 3.55e+00  -0.7 3.96e-01 1.71e-01f  1
 112r 2.5614268e+03 8.81e-02 4.02e+02  -2.1 9.22e+00  -1.1 7.75e-03 3.31e-01f  1
 113r 2.5614267e+03 8.62e-02 3.38e+02  -2.1 3.70e+00  -0.7 3.52e-01 4.94e-01f  1
 114r 2.5614267e+03 8.61e-02 3.33e+02  -2.1 9.79e+00  -1.2 3.53e-02 9.24e-03f  1
 115r 2.5614267e+03 8.57e-02 4.31e+02  -2.1 4.05e+00  -0.8 9.41e-02 8.14e-01f  1
 116r 2.5614267e+03 8.55e-02 2.97e+02  -2.1 1.50e+00  -0.3 3.15e-01 3.03e-01f  1
 117r 2.5614267e+03 8.56e-02 2.15e+00  -2.1 3.45e-03   2.8 1.00e+00 1.00e+00f  1
 118r 2.5614267e+03 8.55e-02 1.51e+02  -2.1 1.67e-02   2.3 3.81e-01 7.34e-01f  1
 119r 2.5614267e+03 8.55e-02 4.42e+00  -2.1 7.97e-03   2.7 1.00e+00 1.00e+00f  1
iter    objective    inf_pr   inf_du lg(mu)  ||d||  lg(rg) alpha_du alpha_pr  ls
 120r 2.5614267e+03 8.54e-02 4.20e+01  -2.1 1.83e-01   2.3 6.56e-02 7.27e-02f  1
 121r 2.5614267e+03 8.53e-02 1.63e+02  -2.1 2.72e-02   2.7 6.40e-01 3.36e-01f  1
 122r 2.5614267e+03 8.54e-02 6.70e+01  -2.1 8.16e-03   2.2 1.00e+00 7.01e-01f  1
 123r 2.5614267e+03 8.54e-02 8.95e+01  -2.1 1.41e-02   1.7 1.00e+00 8.80e-01f  1
 124r 2.5614267e+03 8.54e-02 6.98e-01  -2.1 3.82e-02   1.3 1.00e+00 1.00e+00f  1
 125r 2.5614267e+03 8.54e-02 6.96e-01  -2.1 1.14e-01   0.8 1.00e+00 1.00e+00f  1
 126r 2.5614267e+03 8.54e-02 6.92e-01  -2.1 3.41e-01   0.3 1.00e+00 1.00e+00f  1
 127r 2.5614267e+03 8.55e-02 1.91e+00  -2.1 1.01e+00  -0.2 1.00e+00 9.80e-01f  1
 128r 2.5614267e+03 8.54e-02 1.59e+02  -2.1 2.90e+00  -0.6 1.00e+00 2.95e-01f  1
 129r 2.5614267e+03 8.38e-02 1.24e+02  -2.1 8.03e+00  -1.1 2.30e-01 2.52e-01f  1
iter    objective    inf_pr   inf_du lg(mu)  ||d||  lg(rg) alpha_du alpha_pr  ls
 130r 2.5614267e+03 7.80e-02 1.67e+02  -2.1 7.82e+02  -1.6 1.31e-04 3.54e-03f  1
 131r 2.5614267e+03 7.66e-02 1.21e+02  -2.1 1.05e+01  -1.2 1.32e-01 1.06e-01f  1
 132r 2.5614267e+03 7.23e-02 2.08e+02  -2.1 3.44e+00  -0.7 5.85e-01 8.50e-01f  1
 133r 2.5614267e+03 6.44e-02 3.13e+02  -2.1 2.35e+01  -1.2 1.84e-03 7.54e-02f  1
 134r 2.5614267e+03 6.44e-02 3.22e+02  -2.1 5.08e+00  -0.8 4.33e-01 3.27e-03f  1
 135r 2.5614267e+03 6.42e-02 2.87e+02  -2.1 2.62e+01  -1.3 1.77e-01 1.17e-01f  1
 136r 2.5614267e+03 6.41e-02 6.47e+02  -2.1 1.44e+02  -1.8 3.38e-02 5.38e-04f  1
 137r 2.5614266e+03 6.37e-02 7.42e+02  -2.1 1.13e+01  -1.3 2.84e-01 4.44e-02f  1
 138r 2.5614266e+03 6.55e-02 4.72e+02  -2.1 8.45e+01  -1.8 5.94e-04 4.04e-02f  1
 139r 2.5614266e+03 6.54e-02 9.99e+02  -2.1 1.21e+01  -1.4 1.26e-01 6.54e-03f  1
iter    objective    inf_pr   inf_du lg(mu)  ||d||  lg(rg) alpha_du alpha_pr  ls
 140r 2.5614266e+03 6.56e-02 1.15e+03  -2.1 1.58e+02  -1.9 2.10e-02 6.08e-03f  1
 141r 2.5614266e+03 6.43e-02 9.62e+02  -2.1 1.55e+01  -1.4 2.99e-01 9.09e-02f  1
 142r 2.5614267e+03 6.18e-02 4.53e+02  -2.1 5.11e+00  -1.0 2.41e-01 4.31e-01f  1
 143r 2.5614267e+03 6.16e-02 7.05e+02  -2.1 1.99e+01  -1.5 1.94e-01 1.24e-02f  1
 144r 2.5614267e+03 6.09e-02 5.38e+02  -2.1 5.63e+00  -1.1 2.51e-02 2.02e-01f  1
 145r 2.5614267e+03 6.19e-02 4.88e+02  -2.1 2.71e+01  -1.5 8.95e-02 9.26e-02f  1
 146r 2.5614266e+03 6.17e-02 4.66e+02  -2.1 7.33e+00  -1.1 1.00e+00 1.46e-01f  1
 147r 2.5614266e+03 6.15e-02 1.86e+03  -2.1 3.32e+01  -1.6 1.98e-01 1.11e-02f  1
 148r 2.5614266e+03 5.85e-02 4.36e+02  -2.1 8.63e+00  -1.2 6.36e-03 5.03e-01f  1
 149r 2.5614266e+03 5.89e-02 6.37e+02  -2.1 1.10e+02  -1.6 4.42e-02 5.97e-03f  1
iter    objective    inf_pr   inf_du lg(mu)  ||d||  lg(rg) alpha_du alpha_pr  ls
 150r 2.5614266e+03 5.78e-02 7.81e+02  -2.1 1.15e+01  -1.2 3.52e-01 2.13e-01f  1
 151r 2.5614266e+03 5.82e-02 4.68e+02  -2.1 2.12e+02  -1.7 1.26e-03 1.58e-02f  1
 152r 2.5614266e+03 5.82e-02 5.13e+02  -2.1 1.24e+01  -1.3 2.28e-02 5.61e-03f  1
 153r 2.5614266e+03 5.91e-02 5.09e+02  -2.1 2.15e+03  -1.7 4.31e-05 3.61e-04f  1
 154r 2.5614266e+03 5.92e-02 4.85e+02  -2.1 1.39e+01  -1.3 3.77e-01 3.29e-02f  1
 155r 2.5614266e+03 5.95e-02 4.84e+02  -2.1 4.15e+01  -1.8 1.84e-02 9.39e-03f  1
 156r 2.5614266e+03 5.94e-02 1.01e+03  -2.1 1.12e+01  -1.4 5.22e-01 4.36e-02f  1
 157r 2.5614267e+03 5.94e-02 8.64e+02  -2.1 3.41e+01  -1.8 1.73e-02 5.22e-02f  1
 158r 2.5614267e+03 5.89e-02 1.02e+03  -2.1 1.22e+01  -1.4 2.18e-01 6.60e-02f  1
 159r 2.5614267e+03 5.90e-02 9.60e+02  -2.1 4.18e+01  -1.9 1.81e-03 2.15e-02f  1
iter    objective    inf_pr   inf_du lg(mu)  ||d||  lg(rg) alpha_du alpha_pr  ls
 160r 2.5614267e+03 5.82e-02 9.14e+02  -2.1 1.34e+01  -1.5 2.71e-01 9.26e-02f  1
 161r 2.5614267e+03 5.78e-02 9.11e+02  -2.1 3.65e+01  -1.9 1.35e-01 2.52e-02f  1
 162r 2.5614267e+03 5.43e-02 6.84e+02  -2.1 1.54e+01  -1.5 2.33e-01 2.47e-01f  1
 163r 2.5614267e+03 5.19e-02 6.05e+02  -2.1 4.53e+01  -2.0 1.45e-02 1.10e-01f  1
 164r 2.5614267e+03 5.16e-02 6.00e+02  -2.1 2.03e+02  -2.5 2.67e-02 1.16e-03f  1
 165r 2.5614267e+03 4.23e-02 5.40e+02  -2.1 7.49e+01  -2.0 3.50e-03 1.00e-01f  1
 166r 2.5614267e+03 4.14e-02 5.27e+02  -2.1 3.06e+02  -2.5 4.30e-02 2.09e-03f  1
 167r 2.5614267e+03 3.38e-02 4.92e+02  -2.1 7.45e+01  -2.1 5.34e-02 6.63e-02f  1
 168r 2.5614267e+03 2.61e-02 4.89e+02  -2.1 3.25e+02  -2.6 3.79e-03 1.52e-02f  1
 169r 2.5614267e+03 2.16e-02 4.70e+02  -2.1 8.96e+01  -2.1 6.47e-02 3.14e-02f  1
iter    objective    inf_pr   inf_du lg(mu)  ||d||  lg(rg) alpha_du alpha_pr  ls
 170r 2.5614267e+03 1.92e-02 4.74e+02  -2.1 9.71e+02  -2.6 3.78e-04 1.59e-03f  1
 171r 2.5614267e+03 1.51e-02 6.33e+02  -2.1 1.10e+02  -2.2 7.05e-02 2.60e-02f  1
 172r 2.5614267e+03 1.49e-02 8.38e+02  -2.1 5.58e+02  -2.7 1.42e-02 3.42e-03f  1
 173r 2.5614267e+03 1.46e-02 6.85e+02  -2.1 1.20e+02  -2.2 3.30e-02 6.32e-02f  1
 174r 2.5614267e+03 1.46e-02 6.32e+02  -2.1 1.83e+01  -1.8 2.48e-01 3.35e-03f  1
 175r 2.5613413e+03 1.47e-02 5.14e+02  -2.1 6.92e+03    -  4.83e-03 1.50e-02f  1
 176r 2.5613413e+03 1.48e-02 5.08e+02  -2.1 8.27e+01  -2.3 1.22e-03 9.63e-03f  1
 177r 2.5613111e+03 1.48e-02 5.04e+02  -2.1 1.99e+03    -  6.15e-02 7.01e-03f  1
 178r 2.5611535e+03 1.47e-02 4.78e+02  -2.1 1.62e+03    -  1.60e-01 5.15e-02f  1
 179r 2.5608373e+03 1.56e-02 7.74e+02  -2.1 1.21e+03    -  1.51e-02 1.55e-01f  1
iter    objective    inf_pr   inf_du lg(mu)  ||d||  lg(rg) alpha_du alpha_pr  ls
 180r 2.5607763e+03 1.49e-02 5.02e+02  -2.1 1.09e+03    -  1.07e-01 3.43e-02f  1
 181r 2.5606106e+03 1.47e-02 4.08e+02  -2.1 1.06e+03    -  1.77e-01 7.95e-02f  1
 182r 2.5603676e+03 1.47e-02 4.06e+02  -2.1 8.85e+02    -  1.97e-01 1.10e-01f  1
 183r 2.5602101e+03 1.47e-02 3.76e+02  -2.1 6.69e+02    -  2.96e-01 1.11e-01f  1
 184r 2.5597893e+03 1.46e-02 3.81e+02  -2.1 5.89e+02    -  7.28e-01 3.50e-01f  1
 185r 2.5593588e+03 1.46e-02 3.81e+02  -2.1 3.83e+02    -  2.31e-02 7.73e-01f  1
 186r 2.5593937e+03 1.46e-02 6.34e+01  -2.1 1.52e+02    -  9.43e-01 1.00e+00f  1
 187r 2.5592426e+03 1.46e-02 6.64e+00  -2.1 9.00e+01    -  1.00e+00 9.88e-01f  1
 188r 2.5592621e+03 1.46e-02 3.37e-03  -2.1 1.18e+01    -  1.00e+00 1.00e+00f  1
 189r 2.5592644e+03 1.46e-02 7.22e+00  -4.8 2.87e+01    -  9.49e-01 8.85e-01f  1
iter    objective    inf_pr   inf_du lg(mu)  ||d||  lg(rg) alpha_du alpha_pr  ls
 190r 2.5592644e+03 1.46e-02 1.13e+02  -4.8 2.60e+00  -2.8 5.42e-02 4.84e-02f  1
 191r 2.5592644e+03 1.45e-02 1.13e+02  -4.8 1.30e+01  -3.3 3.22e-02 3.92e-02f  1
 192r 2.5595076e+03 1.45e-02 1.29e+02  -4.8 5.22e+06    -  3.82e-04 2.41e-04f  1
 193r 2.5595077e+03 1.45e-02 2.06e+02  -4.8 1.82e+01  -3.7 3.95e-05 1.99e-02f  1
 194r 2.5595077e+03 1.45e-02 1.72e+03  -4.8 7.83e+01  -4.2 3.63e-02 1.09e-04h  1
 195r 2.5595102e+03 1.45e-02 2.60e+03  -4.8 1.64e+02  -4.7 1.83e-05 4.93e-02f  1
 196r 2.5595313e+03 1.32e-02 2.16e+03  -4.8 4.75e+02  -5.2 7.68e-03 2.28e-01f  1
 197r 2.5596175e+03 1.23e-02 1.48e+03  -4.8 1.48e+03  -5.6 2.96e-01 3.18e-01f  1
 198r 2.5596176e+03 1.23e-02 1.48e+03  -4.8 4.56e+03  -6.1 4.40e-04 5.70e-05h  1
 199r 2.5596244e+03 1.23e-02 1.42e+03  -4.8 1.44e+04  -6.6 1.08e-02 1.98e-03f  1
iter    objective    inf_pr   inf_du lg(mu)  ||d||  lg(rg) alpha_du alpha_pr  ls
 200r 2.5604558e+03 1.24e-02 8.14e+02  -4.8 5.14e+04  -7.1 5.83e-01 5.18e-02f  1
 201r 2.5603988e+03 1.24e-02 8.14e+02  -4.8 8.91e+04    -  1.66e-04 3.34e-04f  1
 202r 2.5571026e+03 1.27e-02 7.99e+02  -4.8 9.11e+04    -  1.13e-01 1.91e-02f  1
 203r 2.5567247e+03 1.27e-02 7.88e+02  -4.8 2.15e+04    -  1.97e-01 1.27e-02f  1
 204r 2.5545577e+03 1.26e-02 7.29e+02  -4.8 2.12e+04    -  9.91e-02 7.57e-02f  1
 205r 2.5534425e+03 1.26e-02 1.89e+03  -4.8 2.06e+04    -  4.67e-01 2.25e-02f  1
 206r 2.5528947e+03 1.25e-02 1.76e+03  -4.8 1.61e+04    -  1.00e+00 2.10e-02f  1
 207r 2.5473987e+03 1.23e-02 1.34e+03  -4.8 1.58e+04    -  1.00e+00 2.24e-01f  1
 208r 2.5388562e+03 1.20e-02 7.33e+02  -4.8 1.25e+04    -  4.29e-01 4.50e-01f  1
 209r 2.5378410e+03 1.19e-02 5.52e+02  -4.8 6.94e+03    -  1.00e+00 1.46e-01f  1
iter    objective    inf_pr   inf_du lg(mu)  ||d||  lg(rg) alpha_du alpha_pr  ls
 210r 2.5365657e+03 1.19e-02 5.00e+02  -4.8 5.88e+03    -  7.14e-01 2.07e-01f  1
 211r 2.5325181e+03 1.17e-02 1.55e+01  -4.8 4.67e+03    -  1.00e+00 9.69e-01f  1
 212r 2.5323080e+03 1.17e-02 9.25e-04  -4.8 1.59e+02    -  1.00e+00 1.00e+00f  1
 213r 2.5323070e+03 1.17e-02 4.73e-08  -4.8 7.99e-01    -  1.00e+00 1.00e+00h  1
 214r 2.5323028e+03 1.17e-02 1.51e-02  -7.2 6.14e+00    -  1.00e+00 1.00e+00f  1
 215r 2.5321433e+03 1.17e-02 1.06e+02  -7.2 6.39e+03  -7.5 1.01e-01 2.15e-02f  1
 216r 2.5321433e+03 1.17e-02 2.18e+02  -7.2 1.77e+04  -8.0 7.66e-02 8.95e-07f  1
 217r 2.5236353e+03 1.18e-02 1.17e+02  -7.2 4.61e+04  -8.5 1.84e-01 2.31e-01f  1
 218r 2.5236353e+03 1.18e-02 6.04e+02  -7.2 1.61e+04  -8.1 3.57e-01 3.34e-07h  1
 219r 2.5201262e+03 1.18e-02 5.57e+02  -7.2 4.57e+04  -8.6 2.75e-02 7.97e-02f  1
iter    objective    inf_pr   inf_du lg(mu)  ||d||  lg(rg) alpha_du alpha_pr  ls
 220r 2.5131427e+03 1.15e-02 4.83e+02  -7.2 3.05e+04  -8.1 3.40e-02 1.28e-01f  1
 221r 2.5131427e+03 1.15e-02 4.83e+02  -7.2 4.19e+05  -8.6 9.81e-03 1.96e-08h  1
 222r 2.5103792e+03 1.14e-02 1.53e+03  -7.2 1.82e+04  -8.2 7.80e-01 6.29e-02f  1
 223r 2.4695309e+03 1.40e-02 8.23e+02  -7.2 2.17e+07  -8.7 2.34e-04 1.28e-03f  1
 224r 2.4650559e+03 1.30e-02 8.26e+02  -7.2 3.05e+04  -8.2 1.43e-01 8.56e-02f  1
 225r 2.4618599e+03 1.17e-02 8.86e+02  -7.2 9.53e+03  -7.8 8.21e-01 1.75e-01f  1
 226r 2.4546404e+03 1.18e-02 1.15e+03  -7.2 1.81e+04  -8.3 1.00e+00 2.14e-01f  1
 227r 2.4502363e+03 1.18e-02 1.11e+03  -7.2 2.44e+06    -  8.27e-07 3.40e-03f  1
 228r 2.4502309e+03 1.18e-02 1.64e+03  -7.2 3.43e+04  -8.8 5.50e-01 6.64e-05h  1
 229r 2.4475712e+03 1.18e-02 1.61e+03  -7.2 1.36e+06    -  6.18e-09 3.22e-03f  1
iter    objective    inf_pr   inf_du lg(mu)  ||d||  lg(rg) alpha_du alpha_pr  ls
 230r 2.4475509e+03 1.18e-02 1.61e+03  -7.2 6.50e+05    -  1.23e-01 3.85e-05f  1
 231r 2.4321818e+03 1.15e-02 1.51e+03  -7.2 6.51e+05    -  1.26e-03 6.16e-02f  1
 232r 2.4321817e+03 1.15e-02 1.51e+03  -7.2 2.61e+05    -  4.52e-01 2.06e-07h  1
 233r 2.3894770e+03 1.12e-02 1.36e+03  -7.2 2.72e+05    -  5.67e-08 1.02e-01f  1
 234r 2.3894758e+03 1.12e-02 1.36e+03  -7.2 2.33e+05    -  1.00e+00 1.29e-05h  1
 235r 2.3816423e+03 1.08e-02 1.15e+03  -7.2 2.33e+05    -  9.82e-02 1.52e-01f  1
 236r 2.3900253e+03 1.06e-02 1.04e+03  -7.2 2.02e+05    -  1.00e+00 1.18e-01f  1
 237r 2.3888285e+03 1.09e-02 7.58e+02  -7.2 7.40e+04    -  1.00e+00 2.55e-01f  1
 238r 2.4008992e+03 1.10e-02 3.31e+02  -7.2 8.17e+04    -  1.00e+00 6.73e-01f  1
 239r 2.3991856e+03 1.06e-02 3.54e+02  -7.2 2.31e+04  -9.2 1.00e+00 1.64e-01f  1
iter    objective    inf_pr   inf_du lg(mu)  ||d||  lg(rg) alpha_du alpha_pr  ls
 240r 2.3991857e+03 1.06e-02 3.88e+02  -7.2 3.47e+05    -  4.47e-02 4.44e-07h  1
 241r 2.4004611e+03 1.05e-02 9.57e+02  -7.2 3.40e+05    -  2.38e-01 2.00e-02f  1
 242r 2.3706234e+03 3.60e-02 5.33e+02  -7.2 1.12e+05    -  9.83e-02 2.44e-01f  1
 243r 2.3706233e+03 3.60e-02 9.15e+02  -7.2 2.91e+05    -  2.61e-01 9.56e-08h  1
 244r 2.3596904e+03 3.54e-02 9.08e+02  -7.2 2.48e+05    -  2.78e-02 1.71e-02f  1
 245r 2.3596904e+03 3.54e-02 5.26e+02  -7.2 4.56e+04    -  1.00e+00 1.40e-07h  1
 246r 2.3624318e+03 5.11e+00 2.58e+02  -7.2 5.02e+04    -  1.00e+00 5.43e-01f  1
 247r 2.3738533e+03 1.85e-01 1.04e+01  -7.2 1.87e+04    -  9.94e-01 9.64e-01f  1
 248r 2.3670507e+03 9.29e-02 3.79e+01  -7.2 9.66e+03    -  1.00e+00 4.98e-01h  1
 249r 2.3585984e+03 8.08e-03 1.77e-01  -7.2 3.63e+03    -  1.00e+00 1.00e+00h  1
iter    objective    inf_pr   inf_du lg(mu)  ||d||  lg(rg) alpha_du alpha_pr  ls
 250r 2.3586880e+03 8.07e-03 5.12e-03  -7.2 1.08e+03    -  1.00e+00 1.00e+00h  1
 251r 2.3587356e+03 8.07e-03 2.48e-04  -7.2 2.76e+02    -  1.00e+00 1.00e+00h  1
 252r 2.3587392e+03 8.07e-03 1.50e-06  -7.2 2.15e+01    -  1.00e+00 1.00e+00h  1
 253r 2.3587393e+03 8.07e-03 3.00e-03  -9.0 1.20e-01    -  1.00e+00 1.00e+00h  1
 254r 2.3604418e+03 7.89e-03 5.10e+02  -9.0 4.48e+05  -9.7 1.05e-01 8.95e-03f  1
 255r 2.3630937e+03 7.76e-03 1.42e+03  -9.0 9.98e+04  -9.3 5.62e-01 2.72e-02f  1
 256r 2.3732621e+03 9.94e-02 1.27e+03  -9.0 1.18e+05  -9.8 7.86e-01 1.70e-01f  1
 257r 2.3724704e+03 9.93e-02 8.34e+02  -9.0 2.26e+05 -10.2 1.00e+00 1.18e-03f  1
 258r 1.4240335e+03 1.73e-01 7.96e+02  -9.0 8.20e+06    -  1.73e-02 3.31e-02f  1
 259r 1.4240335e+03 1.73e-01 1.00e+03  -9.0 1.88e+07  -9.8 0.00e+00 9.29e-13R  7
iter    objective    inf_pr   inf_du lg(mu)  ||d||  lg(rg) alpha_du alpha_pr  ls
 260r 1.4240335e+03 1.73e-01 1.00e+03  -9.0 4.17e+05  -9.4 3.31e-10 6.26e-10f  1
 261r 1.4240307e+03 1.73e-01 1.00e+03  -9.0 1.13e+05  -9.0 2.15e-01 2.09e-05f 11
 262r 1.4240230e+03 1.73e-01 1.02e+03  -9.0 2.30e+05  -9.4 7.30e-03 1.19e-05f 13
 263r 1.4240206e+03 1.73e-01 1.02e+03  -9.0 1.24e+05  -9.0 3.00e-05 1.22e-05f 13
 264r 1.4240053e+03 1.73e-01 1.02e+03  -9.0 9.07e+05  -9.5 6.19e-06 9.90e-06f 13
 265r 1.4240025e+03 1.73e-01 1.38e+03  -9.0 1.45e+05  -9.1 1.44e-01 1.22e-05f 13
 266r 1.3488171e+03 9.13e-02 1.20e+03  -9.0 1.34e+06  -9.5 1.10e-05 3.52e-02f  1
 267r 1.3391919e+03 4.05e-02 1.12e+03  -9.0 1.89e+05  -9.1 3.96e-02 4.82e-02f  1
 268r 1.3385263e+03 4.03e-02 1.15e+03  -9.0 2.64e+05  -9.6 3.40e-02 1.97e-03f  1
 269r 1.3347538e+03 3.83e-02 1.10e+03  -9.0 1.54e+05  -9.2 1.37e-01 2.38e-02f  1
iter    objective    inf_pr   inf_du lg(mu)  ||d||  lg(rg) alpha_du alpha_pr  ls
 270r 1.3643615e+03 3.81e-02 1.10e+03  -9.0 3.63e+05  -9.6 1.61e-10 3.25e-02f  1
 271r 1.3643613e+03 3.81e-02 1.13e+03  -9.0 9.19e+04  -9.2 1.01e-01 7.80e-06f  1
 272r 1.3601754e+03 2.87e-02 9.01e+02  -9.0 4.69e+04  -8.8 2.21e-08 1.99e-01f  1
 273r 1.3573571e+03 2.76e-02 8.68e+02  -9.0 9.57e+04  -9.3 5.87e-01 3.64e-02f  1
 274r 1.3576272e+03 2.17e-02 7.96e+02  -9.0 2.82e+04  -8.8 7.06e-01 2.12e-01f  1
 275r 1.3576272e+03 2.17e-02 6.41e+02  -9.0 2.14e+05  -9.3 3.15e-01 1.67e-09h  1
 276r 1.3576926e+03 2.17e-02 4.88e+02  -9.0 2.71e+04  -9.8 1.00e+00 7.63e-04f  1
 277r 1.4418669e+03 2.50e-02 4.29e+02  -9.0 7.38e+06    -  1.10e-02 4.02e-03f  1
 278r 1.7407477e+03 1.60e-02 1.35e+02  -9.0 8.96e+04    -  1.00e+00 6.93e-01f  1
 279r 1.7374636e+03 1.54e-02 5.82e+02  -9.0 5.91e+04    -  8.38e-01 3.68e-02f  1
iter    objective    inf_pr   inf_du lg(mu)  ||d||  lg(rg) alpha_du alpha_pr  ls
 280r 1.7673354e+03 1.31e-02 2.77e+02  -9.0 5.20e+04    -  1.00e+00 1.60e-01f  1
 281r 1.8613564e+03 3.30e-03 8.31e+01  -9.0 1.86e+04    -  5.14e-07 9.95e-01f  1
 282r 1.8725416e+03 2.84e-03 4.58e+01  -9.0 2.42e+04    -  1.00e+00 1.60e-01h  1
 283r 1.8783008e+03 4.10e-05 3.13e+01  -9.0 1.18e+03    -  1.35e-08 9.98e-01f  1
 284  1.8681833e+03 4.08e-06 8.65e+07  -3.8 1.72e+03    -  1.31e-01 1.00e+00f  1
 285  1.8559029e+03 7.73e-06 4.66e+09  -3.8 1.85e+03    -  9.93e-01 1.00e+00f  1
In iteration 285, 32 Slacks too small, adjusting variable bounds
 286  1.0787143e+03 2.05e-05 3.76e+15  -3.8 1.29e+05    -  1.45e-01 1.00e+00F  1
 287  1.0718807e+03 3.01e-05 3.77e+15  -3.8 7.47e+04    -  1.04e-01 1.34e-02f  7
 288  1.0645153e+03 4.15e-05 4.09e+15  -3.8 7.98e+04    -  6.72e-01 1.36e-02f  7
 289  1.0628110e+03 4.21e-05 4.10e+15  -3.8 1.41e+05    -  7.14e-02 1.83e-03f 10
iter    objective    inf_pr   inf_du lg(mu)  ||d||  lg(rg) alpha_du alpha_pr  ls
 290  1.0610577e+03 4.28e-05 4.21e+15  -3.8 1.46e+05    -  6.73e-01 1.83e-03f 10
 291  3.7418388e+02 4.25e-01 8.52e+13  -3.8 2.00e+05    -  5.22e-02 9.67e-01f  1
 292  2.8121257e+02 3.17e+00 4.22e+13  -3.8 1.12e+05    -  2.16e-01 1.00e+00f  1
 293  2.5944034e+02 1.82e+00 4.13e+13  -3.8 1.34e+04  -5.4 2.13e-02 1.00e+00f  1
 294  2.5286745e+02 8.13e-01 2.46e+13  -3.8 1.29e+04  -5.9 4.04e-01 1.00e+00f  1
 295  2.5131316e+02 6.35e-01 9.12e+11  -3.8 1.76e+04  -6.4 9.63e-01 2.44e-01f  1
 296  2.5498405e+02 2.61e-01 9.54e+10  -3.8 2.17e+04  -6.9 8.95e-01 1.00e+00h  1
 297  2.6159248e+02 5.00e-02 2.74e+09  -3.8 2.04e+04  -7.3 9.71e-01 1.00e+00h  1
 298  2.0358515e+02 1.96e-01 7.90e+08  -3.8 5.01e+04    -  7.12e-01 1.00e+00f  1
 299  2.0302247e+02 2.20e-02 1.06e+07  -3.8 2.69e+04    -  9.87e-01 1.00e+00f  1
iter    objective    inf_pr   inf_du lg(mu)  ||d||  lg(rg) alpha_du alpha_pr  ls
 300  2.0167536e+02 3.44e+00 6.07e+00  -3.8 5.04e+03    -  1.00e+00 1.00e+00H  1
 301  2.0269535e+02 1.72e+00 4.70e-01  -3.8 6.84e+03    -  8.22e-01 5.00e-01h  2
 302  1.9982526e+02 6.93e+00 5.30e+00  -3.8 5.51e+03    -  1.00e+00 1.00e+00H  1
 303  2.0230497e+02 2.63e-02 6.39e+00  -3.8 7.84e+03    -  1.00e+00 1.00e+00h  1
 304  2.0173500e+02 5.97e-04 4.08e-01  -3.8 2.07e+03    -  1.00e+00 1.00e+00f  1
 305  2.0172021e+02 1.21e-05 2.31e-03  -5.7 1.31e+02    -  1.00e+00 1.00e+00h  1
 306  2.0172006e+02 2.26e-10 8.98e-07  -8.6 4.71e-01    -  1.00e+00 1.00e+00h  1

Number of Iterations....: 306

                                   (scaled)                 (unscaled)
Objective...............:   2.0172005909117232e+02    2.0172005909117232e+02
Dual infeasibility......:   8.9779496192932129e-07    8.9779496192932129e-07
Constraint violation....:   2.2578294789354914e-10    2.2578294789354914e-10
Complementarity.........:   2.5721845890509964e-09    2.5721845890509964e-09
Overall NLP error.......:   2.2578294789354914e-10    8.9779496192932129e-07


Number of objective function evaluations             = 518
Number of objective gradient evaluations             = 45
Number of equality constraint evaluations            = 519
Number of inequality constraint evaluations          = 0
Number of equality constraint Jacobian evaluations   = 309
Number of inequality constraint Jacobian evaluations = 0
Number of Lagrangian Hessian evaluations             = 306
Total CPU secs in IPOPT (w/o function evaluations)   =      0.460
Total CPU secs in NLP function evaluations           =      8.743

EXIT: Optimal Solution Found.
